c Random generated cnf formula, satisfiable: true
p cnf 10 50
1 -6 -5 0
-9 -6 -7 0
-8 -1 7 0
-9 -2 -5 0
7 -8 6 0
7 -9 -3 0
10 -3 -5 0
9 -3 1 0
6 -8 -10 0
9 10 6 0
-7 3 -5 0
4 9 6 0
-1 7 10 0
10 -7 -6 0
-8 6 10 0
-2 7 4 0
8 3 10 0
-3 -1 8 0
5 -8 -10 0
5 -3 -1 0
5 -10 7 0
-1 7 4 0
10 -7 2 0
-5 -2 4 0
-7 -8 6 0
-10 -8 6 0
-9 8 -2 0
-3 -2 -9 0
-1 -10 2 0
5 -4 -6 0
8 9 6 0
-10 -5 -4 0
-3 -1 7 0
-6 -2 -4 0
-10 5 8 0
-7 -6 -4 0
-1 -2 -5 0
2 -1 -6 0
7 -5 8 0
-6 8 4 0
8 4 1 0
-2 9 8 0
4 -3 6 0
7 -2 -6 0
-6 7 -4 0
-5 -1 2 0
9 7 -5 0
-8 7 -5 0
1 6 2 0
-7 10 5 0
